Minimize
  - 9 y_0 - 13 y_1 - 17 y_2 - 10 y_3 - 13 y_5 - 23 y_6 - 18 y_7 - 11 y_8
   - 9 y_9 + 48 x_0_2 + 76 x_0_7 + 41 x_1_5 + 43 x_1_6 + 47 x_2_3
   + 68 x_2_6 + 47 x_2_7 + 39 x_3_4 + 23 x_3_5 + 44 x_4_8 + 58 x_5_7
   + 85 x_6_9 + 63 x_7_9 + 16 x_8_9 + 123 Constant
Subject To
 c_0: y_2 = 1
 c_1_0: y_0 + y_3 >= 1
 c_1_1: y_1 >= 1
 c_1_2: y_2 >= 1
 c_1_3: y_0 + y_3 >= 1
 c_1_4: y_4 >= 1
 c_1_5: y_5 >= 1
 c_1_6: y_6 >= 1
 c_1_7: y_7 >= 1
 c_1_8: y_8 >= 1
 c_1_9: y_9 >= 1
 c_2_0: - 2 y_0 + x_0_2 + x_0_7 = 0
 c_2_1: - 2 y_1 + x_1_5 + x_1_6 = 0
 c_2_2: - 2 y_2 + x_0_2 + x_2_3 + x_2_6 + x_2_7 = 0
 c_2_3: - 2 y_3 + x_2_3 + x_3_4 + x_3_5 = 0
 c_2_4: - 2 y_4 + x_3_4 + x_4_8 = 0
 c_2_5: - 2 y_5 + x_1_5 + x_3_5 + x_5_7 = 0
 c_2_6: - 2 y_6 + x_1_6 + x_2_6 + x_6_9 = 0
 c_2_7: - 2 y_7 + x_0_7 + x_2_7 + x_5_7 + x_7_9 = 0
 c_2_8: - 2 y_8 + x_4_8 + x_8_9 = 0
 c_2_9: - 2 y_9 + x_6_9 + x_7_9 + x_8_9 = 0
Bounds
 Constant = 1
Binaries
 y_0 y_1 y_2 y_3 y_4 y_5 y_6 y_7 y_8 y_9 x_0_2 x_0_7 x_1_5 x_1_6 x_2_3
 x_2_6 x_2_7 x_3_4 x_3_5 x_4_8 x_5_7 x_6_9 x_7_9 x_8_9
End
